
******************************************************************************
This program contains Ipopt, a library for large-scale nonlinear optimization.
 Ipopt is released as open source code under the Eclipse Public License (EPL).
         For more information visit http://projects.coin-or.org/Ipopt
******************************************************************************

This is Ipopt version 3.12.6, running with linear solver ma57.

Number of nonzeros in equality constraint Jacobian...:      111
Number of nonzeros in inequality constraint Jacobian.:       18
Number of nonzeros in Lagrangian Hessian.............:       71

Total number of variables............................:       30
                     variables with only lower bounds:       18
                variables with lower and upper bounds:        0
                     variables with only upper bounds:        0
Total number of equality constraints.................:       12
Total number of inequality constraints...............:        1
        inequality constraints with only lower bounds:        0
   inequality constraints with lower and upper bounds:        0
        inequality constraints with only upper bounds:        1

iter    objective    inf_pr   inf_du lg(mu)  ||d||  lg(rg) alpha_du alpha_pr  ls
   0  0.0000000e+00 1.00e+00 6.66e-15  -1.0 0.00e+00    -  0.00e+00 0.00e+00   0
   1  2.5091822e-01 9.80e-01 8.35e-01  -1.7 1.66e+01    -  3.91e-02 1.51e-02h  3
   2  9.4071264e-01 9.15e-01 1.12e+00  -1.7 1.27e+01    -  4.78e-02 5.44e-02h  2
   3  3.3219026e+00 6.61e-01 2.36e+00  -1.7 9.98e+00    -  1.35e-01 2.39e-01h  1
   4  6.2740934e+00 3.29e-01 2.28e+00  -1.7 6.05e+00    -  1.00e+00 4.88e-01h  1
   5  9.2364352e+00 7.99e-02 7.10e-01  -1.7 2.96e+00    -  1.00e+00 1.00e+00h  1
   6  9.2860958e+00 6.23e-04 9.26e-02  -1.7 2.91e-01    -  1.00e+00 1.00e+00h  1
   7  9.0515850e+00 7.28e-04 6.45e-03  -2.5 2.35e-01    -  1.00e+00 1.00e+00f  1
   8  9.0026059e+00 3.79e-05 2.82e-04  -3.8 4.90e-02    -  1.00e+00 1.00e+00f  1
   9  9.0000281e+00 1.22e-07 7.80e-07  -5.7 2.58e-03    -  1.00e+00 1.00e+00h  1
iter    objective    inf_pr   inf_du lg(mu)  ||d||  lg(rg) alpha_du alpha_pr  ls
  10  8.9999995e+00 1.70e-08 1.98e-04  -8.6 4.63e-03    -  1.00e+00 9.92e-01h  1
  11  8.9999995e+00 1.03e-08 1.86e+00  -8.6 2.43e-03  -4.0 5.10e-01 3.97e-01f  2
  12  8.9999995e+00 3.31e-09 8.69e-01  -8.6 3.32e-03  -4.5 1.00e+00 6.83e-01h  1
  13  8.9999995e+00 6.81e-11 3.67e-02  -8.6 1.05e-02  -5.0 1.00e+00 1.00e+00f  1
  14  8.9999995e+00 1.61e-10 3.47e-02  -8.6 3.15e-02  -5.4 1.00e+00 1.00e+00h  1
  15  8.9999994e+00 7.54e-10 7.23e-01  -8.6 1.28e-01  -5.9 1.00e+00 8.00e-01H  1
  16  8.9999994e+00 5.18e-10 1.99e-01  -8.6 5.89e-02  -5.5 1.00e+00 9.26e-01f  1
  17  8.9999994e+00 2.71e-09 1.98e+00  -8.6 1.01e-01  -6.0 5.14e-01 8.21e-01f  1
  18  8.9999994e+00 9.05e-10 1.07e+01  -8.6 6.46e-02  -5.5 5.69e-01 1.00e+00f  1
  19  8.9999993e+00 6.86e-09 4.29e+00  -8.6 2.45e-01  -6.0 1.83e-01 5.71e-01h  1
iter    objective    inf_pr   inf_du lg(mu)  ||d||  lg(rg) alpha_du alpha_pr  ls
  20  8.9999993e+00 6.82e-09 6.76e+00  -8.6 4.48e-01  -5.6 2.68e-01 2.98e-02f  1
  21  8.9999993e+00 2.74e-09 5.14e+00  -8.6 8.99e-02  -6.1 4.19e-01 6.23e-01f  1
  22  8.9999992e+00 9.87e-10 8.30e-01  -8.6 8.18e-02  -5.6 9.35e-01 1.00e+00f  1
  23  8.9999992e+00 7.23e-10 4.18e+00  -8.6 1.09e-01  -6.1 7.27e-01 2.74e-01h  1
  24  8.9999992e+00 7.32e-10 3.66e+00  -8.6 9.62e-02  -6.6 5.09e-01 1.00e+00f  1
  25  8.9999992e+00 5.23e-10 2.14e-01  -8.6 6.94e-02  -6.2 1.00e+00 1.00e+00h  1
  26  8.9999992e+00 6.66e-11 1.32e-02  -8.6 2.30e-02  -5.7 1.00e+00 1.00e+00h  1
  27  8.9999992e+00 4.14e-10 7.98e-02  -8.6 7.37e-02  -6.2 1.00e+00 1.00e+00h  1
  28  8.9999992e+00 4.31e-11 1.58e-02  -8.6 2.81e-02  -5.8 1.00e+00 1.00e+00h  1
  29  8.9999992e+00 7.08e-10 3.18e-01  -8.6 1.03e-01  -6.3 1.00e+00 1.00e+00h  1
iter    objective    inf_pr   inf_du lg(mu)  ||d||  lg(rg) alpha_du alpha_pr  ls
  30  8.9999991e+00 4.79e-10 7.73e-02  -8.6 4.99e-02  -5.8 1.00e+00 1.00e+00h  1
  31  8.9999991e+00 1.33e-09 4.76e-01  -8.6 1.51e-01  -6.3 1.00e+00 1.00e+00h  1
  32  8.9999990e+00 4.14e-09 3.56e+00  -8.6 7.29e-01  -6.8 1.00e+00 5.01e-01h  1
  33  8.9999986e+00 3.21e-08 1.70e+01  -8.6 5.24e+00  -7.3 4.73e-01 2.15e-01f  1
  34  8.9999974e+00 9.36e-08 1.26e+02  -8.6 1.43e+01  -7.7 6.53e-01 1.89e-01f  1
  35  8.9999957e+00 5.09e-08 5.11e+00  -8.6 3.01e+00  -7.3 1.00e+00 1.00e+00f  1
  36  8.9999951e+00 8.04e-09 1.42e+00  -8.6 1.13e+00  -6.9 1.00e+00 1.00e+00h  1
  37  8.9999933e+00 1.42e-08 1.43e+00  -8.6 3.44e+00  -7.4 1.00e+00 1.00e+00h  1
  38  8.9999877e+00 7.45e-08 6.90e+00  -8.6 1.05e+01  -7.9 1.00e+00 1.00e+00h  1
  39  8.9999707e+00 8.73e-07 3.33e+01  -8.6 3.13e+01  -8.3 1.00e+00 1.00e+00h  1
iter    objective    inf_pr   inf_du lg(mu)  ||d||  lg(rg) alpha_du alpha_pr  ls
  40  8.9999460e+00 6.39e-07 8.34e+02  -8.6 9.75e+01  -8.8 7.59e-02 4.68e-01h  1
  41  8.9999054e+00 3.98e-07 1.50e+03  -8.6 2.82e+02  -9.3 1.38e-01 2.65e-01f  1
  42  8.9998520e+00 1.74e-07 1.61e+04  -8.6 8.49e+02  -9.8 1.00e+00 1.17e-01f  1
  43  8.9993176e+00 9.24e-06 3.34e+04  -8.6 2.55e+03 -10.2 1.00e+00 3.89e-01f  1
  44  8.9988431e+00 7.83e-06 1.50e+04  -8.6 7.65e+03 -10.7 2.61e-03 1.16e-01f  1
  45  8.9973433e+00 2.18e-04 3.50e+04  -8.6 2.29e+04 -11.2 2.26e-02 1.19e-01f  1
  46  8.9973541e+00 2.18e-04 3.50e+04  -8.6 3.19e-01   0.7 1.56e-04 3.73e-04h  1
  47  8.9973458e+00 5.58e-09 6.60e+04  -8.6 9.36e-05   0.2 2.84e-04 1.00e+00f  1
  48  8.9973432e+00 9.00e-09 3.28e+04  -8.6 4.85e-02   0.6 1.00e+00 6.32e-04f  1
  49  8.9973432e+00 3.39e-10 1.45e-04  -8.6 3.34e-05   0.1 1.00e+00 1.00e+00f  1
iter    objective    inf_pr   inf_du lg(mu)  ||d||  lg(rg) alpha_du alpha_pr  ls
  50  8.9973432e+00 3.29e-10 1.32e-05  -8.6 2.97e-05  -0.4 1.00e+00 1.00e+00h  1
  51  8.9973432e+00 6.26e-11 2.70e-06  -8.6 1.82e-05  -0.8 1.00e+00 1.00e+00h  1
  52  8.9973432e+00 2.33e-12 1.91e-07  -8.6 3.87e-06  -1.3 1.00e+00 1.00e+00h  1

Number of Iterations....: 52

                                   (scaled)                 (unscaled)
Objective...............:   8.9973431728212283e+00    8.9973431728212283e+00
Dual infeasibility......:   1.9138618645442307e-07    1.9138618645442307e-07
Constraint violation....:   2.3319225880101187e-12    2.3319225880101187e-12
Complementarity.........:   2.5059035597003819e-09    2.5059035597003819e-09
Overall NLP error.......:   2.3046849800747864e-09    1.9138618645442307e-07


Number of objective function evaluations             = 62
Number of objective gradient evaluations             = 53
Number of equality constraint evaluations            = 62
Number of inequality constraint evaluations          = 62
Number of equality constraint Jacobian evaluations   = 53
Number of inequality constraint Jacobian evaluations = 53
Number of Lagrangian Hessian evaluations             = 52
Total CPU secs in IPOPT (w/o function evaluations)   =      0.017
Total CPU secs in NLP function evaluations           =      0.003

EXIT: Optimal Solution Found.

************************ CUTEst statistics ************************


 Package used            :  IPOPT
 Problem                 :  TRO3X3    
 # variables             =              30
 # constraints           =              13
 # objective functions   =        0.1160000E+03
 # objective gradients   =        0.5400000E+02
 # objective Hessians    =        0.5300000E+02
 # Hessian-vector prdct  =        0.0000000E+00
 # constraints functions =        0.1170000E+03
 # constraints gradients =        0.5500000E+02
 # constraints Hessians  =        0.5300000E+02
 Exit code               =               0
 Final f                 =   0.8997343E+01
 Set up time             =            0.00 seconds
 Solve time              =            0.09 seconds


******************************************************************

System Time =       0.0230000000 s.
